Traveling Salesman Problem/TSP_generados/Aleatorio1621103410_13.tsp
NAME: Aleatorio1621103410_13.tsp
COMMENT: Randomly generated scenario
TYPE: TSP
DIMENSION: 13
EDGE_WEIGHT_TYPE: ATT
NODE_COORD_SECTION
1 48.91 7.61
2 13.31 30.24
3 34.14 32.86
4 46.07 22.77
5 40.48 15.01
6 7.09 9.3
7 47.65 0.56
8 10.52 18.83
9 26.46 10.68
10 44.21 48.33
11 23.81 42.86
12 48.5 44.56
13 48.46 14.33
