Traveling Salesman Problem/TSP_generados/Aleatorio1621103410_13.opt.tour
NAME: Aleatorio1621103410_13.opt.tour
COMMENT: Optimal solution for Aleatorio1621103410_13 (171.6560737075658)
TYPE: TOUR
DIMENSION: 13
TOUR_SECTION
1 7 5 9 6 8 2 11 3 10 12 4 13
-1
EOF
